Argumentos: 
./solver.release -i 23 -t 86400 -a 7 -h 86400 -w Testes/Mvic-i23 -m modeloCom2345.mod -o modeloCom2345.mod 
Seed: 1622416830
hidden-TXT/Sc-n110w4.txt
hidden-TXT/H0-n110w4-1.txt
hidden-TXT/WD-n110w4-0.txt hidden-TXT/WD-n110w4-1.txt hidden-TXT/WD-n110w4-6.txt hidden-TXT/WD-n110w4-4.txt 
Reading model section from modeloCom2345.mod...
367 lines were read
Reading data section from Testes/Mvic-i23/23.dat...
19773 lines were read
Generating obj...
Generating H1turnoDia...
Generating H2coberturaMinima...
Generating H3AsucessaoTurnos...
Generating H3BsucessaoTurnos...
Generating H4qualificacao...
Generating S1coberturaOtima...
Generating S2d...
Generating S2dHist...
Generating S2b...
Generating S2bHist...
Generating aux1S2a...
Generating auxS2a...
Generating aux3S2a...
Generating aux4S2a...
Generating s2aMin2...
Generating s2aHistMin2...
Generating s2aMin3...
Generating s2aHistMin3h1...
Generating s2aHistMin3h2...
Generating s2aMin4...
Generating s2aHistMin4h1...
Generating s2aHistMin4h2...
Generating s2aHistMin4h3...
Generating s2aMin5...
Generating s2aHistMin5h1...
Generating s2aHistMin5h2...
Generating s2aHistMin5h3...
Generating s2aHistMin5h4...
Generating auxS2b...
Generating aux1S2b...
Generating aux3S2b...
Generating aux4S2b...
Generating s2b...
Generating s2bHist...
Generating s2bMin3turnos...
Generating s2bHistMin3h1turnos...
Generating s2bHistMin3h2turnos...
Generating s2bMin4...
Generating s2bHistMin4h1...
Generating s2bHistMin4h2...
Generating s2bHistMin4h3...
Generating s2bMin5...
Generating s2bHistMin5h1...
Generating s2bHistMin5h2...
Generating s2bHistMin5h3...
Generating s2bHistMin5h34...
Generating auxS5...
Generating S6a...
Generating S6b...
Generating auxS7...
Generating S7...
Model has been successfully generated
Writing problem data to `Testes/Mvic-i23/23.lp'...
716800 lines were written
CPX0000  Tried aggregator 2 times.
CPX0000  MIP Presolve eliminated 24377 rows and 51870 columns.
CPX0000  MIP Presolve modified 5952 coefficients.
CPX0000  Aggregator did 343 substitutions.
CPX0000  Reduced MIP has 69370 rows, 79094 columns, and 531438 nonzeros.
CPX0000  Reduced MIP has 78454 binaries, 640 generals, 0 SOSs, and 0 indicators.
CPX0000  Presolve time = 1.31 sec. (593.63 ticks)
CPX0000  Found incumbent of value 1507695.000000 after 2.48 sec. (1404.08 ticks)
[1m[30m[ZEN] [0m00:00:02 [1m[34m1507695.00[1m[32m  100.00%
[0mCPX0000  Probing time = 0.08 sec. (21.60 ticks)
CPX0000  Tried aggregator 1 time.
CPX0000  Reduced MIP has 69370 rows, 79094 columns, and 531438 nonzeros.
CPX0000  Reduced MIP has 78454 binaries, 640 generals, 0 SOSs, and 0 indicators.
CPX0000  Presolve time = 0.43 sec. (213.27 ticks)
CPX0000  Probing time = 0.08 sec. (20.80 ticks)
CPX0000  Clique table members: 16443.
CPX0000  MIP emphasis: balance optimality and feasibility.
CPX0000  MIP search method: dynamic search.
CPX0000  Parallel mode: none, using 1 thread.
CPX0000  Root relaxation solution time = 457.50 sec. (86767.43 ticks)
CPX0000
CPX0000          Nodes                                         Cuts/
CPX0000     Node  Left     Objective  IInf  Best Integer    Best Bound    ItCnt     Gap
CPX0000
CPX0000  *     0+    0                      1507695.0000        0.0000    75937  100.00%
CPX0000        0     0      920.9524  7525  1507695.0000      920.9524    75937   99.94%
CPX0000        0     0     1111.3342  7813  1507695.0000    Cuts: 3689   122604   99.93%
CPX0000        0     0     1219.3202  8328  1507695.0000    Cuts: 3085   178230   99.92%
CPX0000        0     0     1236.9531  8807  1507695.0000    Cuts: 2918   227449   99.92%
CPX0000  *     0+    0                       320025.0000     1236.9531   227449   99.61%
[1m[30m[ZEN] [0m00:32:09 [1m[34m 320025.00[1m[32m   99.61%
[0mCPX0000        0     0     1244.5199  9462   320025.0000    Cuts: 3102   276997   99.61%
CPX0000        0     0     1251.6257  9164   320025.0000    Cuts: 3105   327409   99.61%
CPX0000        0     0     1270.7914  9395   320025.0000    Cuts: 2926   385122   99.60%
CPX0000        0     0     1291.6151  9524   320025.0000    Cuts: 2970   437413   99.60%
CPX0000        0     0     1316.6887  9693   320025.0000    Cuts: 2824   504869   99.59%
CPX0000        0     0     1335.9755  9432   320025.0000    Cuts: 2900   564461   99.58%
CPX0000        0     0     1360.0729 10100   320025.0000    Cuts: 2939   618644   99.58%
CPX0000        0     0     1382.8379 10343   320025.0000    Cuts: 2925   678653   99.57%
CPX0000        0     0     1391.4983 10215   320025.0000    Cuts: 2915   758927   99.57%
CPX0000        0     0     1414.2312 10307   320025.0000    Cuts: 2887   826183   99.56%
CPX0000        0     0     1421.8820 10271   320025.0000    Cuts: 3155   909605   99.56%
CPX0000        0     0     1433.6763 10415   320025.0000    Cuts: 3008   981479   99.55%
CPX0000        0     0     1449.3859 10729   320025.0000    Cuts: 3066  1049560   99.55%
CPX0000        0     0     1456.4472 10534   320025.0000    Cuts: 3124  1112195   99.54%
CPX0000        0     0     1469.4246 10360   320025.0000    Cuts: 2881  1174580   99.54%
CPX0000        0     0     1481.0087  9963   320025.0000    Cuts: 3062  1268626   99.54%
CPX0000        0     0     1502.0429 10006   320025.0000    Cuts: 3134  1336626   99.53%
CPX0000        0     0     1514.8251  9827   320025.0000    Cuts: 2920  1405339   99.53%
CPX0000        0     0     1521.9868 10443   320025.0000    Cuts: 3043  1485160   99.52%
CPX0000        0     0     1534.0525 10383   320025.0000    Cuts: 2920  1557332   99.52%
CPX0000        0     0     1542.3850 10289   320025.0000    Cuts: 2890  1626032   99.52%
CPX0000        0     0     1547.8170 10590   320025.0000    Cuts: 2829  1695147   99.52%
CPX0000        0     0     1553.1010 10425   320025.0000    Cuts: 3013  1770249   99.51%
CPX0000        0     0     1561.9498 10544   320025.0000    Cuts: 2924  1852494   99.51%
CPX0000        0     0     1576.4106 10617   320025.0000    Cuts: 2828  1916295   99.51%
CPX0000        0     0     1587.8070 10516   320025.0000    Cuts: 2806  1987289   99.50%
CPX0000        0     0     1589.7287 10419   320025.0000    Cuts: 2973  2060822   99.50%
CPX0000        0     0     1591.6596 10102   320025.0000    Cuts: 2820  2155424   99.50%
CPX0000        0     0     1598.6242  9991   320025.0000    Cuts: 2795  2228706   99.50%
CPX0000        0     0     1603.8425 10541   320025.0000    Cuts: 3015  2299410   99.50%
CPX0000        0     0     1613.3785 10501   320025.0000    Cuts: 3000  2382269   99.50%
CPX0000        0     0     1618.5533 10734   320025.0000    Cuts: 2884  2449148   99.49%
CPX0000        0     0     1628.6644 10567   320025.0000    Cuts: 2944  2527330   99.49%
CPX0000        0     0     1639.0735 11036   320025.0000    Cuts: 2898  2590064   99.49%
CPX0000        0     0     1652.0842 10395   320025.0000    Cuts: 2803  2685864   99.48%
CPX0000        0     0     1670.6217 10611   320025.0000    Cuts: 3206  2768154   99.48%
CPX0000        0     0     1679.8588 10853   320025.0000    Cuts: 3147  2839354   99.48%
CPX0000        0     0     1689.6139 10707   320025.0000    Cuts: 3052  2903868   99.47%
CPX0000        0     0     1697.7036 10963   320025.0000    Cuts: 3016  2975356   99.47%
CPX0000        0     0     1705.2692 10992   320025.0000    Cuts: 2758  3052205   99.47%
CPX0000        0     0     1710.9181 10938   320025.0000    Cuts: 2973  3130558   99.47%
CPX0000        0     0     1719.6258 10871   320025.0000    Cuts: 3046  3204045   99.46%
CPX0000        0     0     1721.3482 11018   320025.0000    Cuts: 2984  3283179   99.46%
CPX0000        0     0     1726.6468 10600   320025.0000    Cuts: 2621  3359756   99.46%
CPX0000        0     0     1736.3318 10379   320025.0000    Cuts: 2825  3441129   99.46%
CPX0000        0     0     1743.3657 10405   320025.0000    Cuts: 3128  3510061   99.46%
CPX0000        0     0     1750.6569 10459   320025.0000    Cuts: 2851  3588716   99.45%
CPX0000        0     0     1761.8627 10330   320025.0000    Cuts: 2847  3679590   99.45%
CPX0000        0     0     1766.5039 10565   320025.0000    Cuts: 3041  3744847   99.45%
CPX0000        0     0     1780.5527 10514   320025.0000    Cuts: 3146  3827013   99.44%
CPX0000        0     0     1785.1474 10672   320025.0000    Cuts: 2751  3897966   99.44%
CPX0000        0     0     1788.3826 10703   320025.0000    Cuts: 2870  3963767   99.44%
CPX0000        0     0     1791.5672 10926   320025.0000    Cuts: 2886  4028295   99.44%
CPX0000        0     0     1795.7891 10765   320025.0000    Cuts: 2871  4100712   99.44%
CPX0000        0     0     1801.7937 10839   320025.0000    Cuts: 2832  4176441   99.44%
CPX0000        0     0     1804.7527 10994   320025.0000    Cuts: 3074  4246037   99.44%
CPX0000        0     0     1810.1609 10970   320025.0000    Cuts: 3034  4322792   99.43%
CPX0000        0     0     1817.3785 11261   320025.0000    Cuts: 3053  4395285   99.43%
CPX0000        0     0     1821.8223 11433   320025.0000    Cuts: 3204  4467585   99.43%
CPX0000        0     0     1827.8096 11179   320025.0000    Cuts: 2855  4551982   99.43%
CPX0000        0     0     1832.6171 11407   320025.0000    Cuts: 2990  4631226   99.43%
CPX0000        0     0     1838.9428 11177   320025.0000    Cuts: 3187  4712814   99.43%
CPX0000        0     0     1845.1734 11082   320025.0000    Cuts: 2880  4817346   99.42%
CPX0000        0     0     1852.0927 10654   320025.0000    Cuts: 2998  4892207   99.42%
CPX0000        0     0     1857.7012 11260   320025.0000    Cuts: 3421  4971831   99.42%
CPX0000        0     0     1866.7583 11282   320025.0000    Cuts: 2967  5049969   99.42%
CPX0000        0     0     1871.8295 11078   320025.0000    Cuts: 2979  5119692   99.42%
CPX0000        0     0     1875.5513 10785   320025.0000    Cuts: 3041  5213507   99.41%
CPX0000        0     0     1882.0755 10561   320025.0000    Cuts: 3013  5307462   99.41%
CPX0000        0     0     1884.2747 10554   320025.0000    Cuts: 2933  5384189   99.41%
CPX0000        0     0     1894.9085 10928   320025.0000    Cuts: 3156  5461310   99.41%
CPX0000        0     0     1899.0532 11012   320025.0000    Cuts: 2763  5535090   99.41%
CPX0000        0     0     1902.4247 11074   320025.0000    Cuts: 2725  5613881   99.41%
CPX0000        0     0     1903.0208 10955   320025.0000    Cuts: 2932  5685961   99.41%
CPX0000        0     0     1906.6539 10613   320025.0000    Cuts: 2544  5760660   99.40%
CPX0000        0     0     1911.7304 10902   320025.0000    Cuts: 2921  5828706   99.40%
CPX0000        0     0     1916.6821 10829   320025.0000    Cuts: 2784  5901130   99.40%
CPX0000        0     0     1920.7628 10733   320025.0000    Cuts: 2741  5972560   99.40%
CPX0000        0     0     1926.9443 10829   320025.0000    Cuts: 2699  6038908   99.40%
CPX0000        0     0     1930.2439 11040   320025.0000    Cuts: 3160  6110009   99.40%
CPX0000        0     0     1931.8303 11037   320025.0000    Cuts: 2657  6186878   99.40%
CPX0000        0     0     1934.4774 11055   320025.0000    Cuts: 2774  6254524   99.40%
CPX0000        0     0     1935.9302 10967   320025.0000    Cuts: 2646  6336413   99.40%
CPX0000        0     0     1937.1948 10650   320025.0000    Cuts: 2769  6399690   99.39%
CPX0000        0     0     1938.6585 10590   320025.0000    Cuts: 2855  6472041   99.39%
CPX0000  Heuristic still looking.
CPX0000  Heuristic still looking.
CPX0000  *     0+    0                        69120.0000     1938.6585  6472041   97.20%
CPX0000  *     0+    0                        35915.0000     1938.6585  6472041   94.60%
CPX0000  *     0+    0                         7735.0000     1938.6585  6472041   74.94%
[1m[30m[ZEN] [0m19:43:50 [1m[34m   7735.00[1m[32m   74.94%
[0mCPX0000        0     2     1938.6585 10590     7735.0000     1938.6585  6472041   74.94%
CPX0000  Elapsed time = 71030.37 sec. (17207973.41 ticks, tree = 0.00 MB
CPX0000        1     3     1938.6585  9003     7735.0000     1938.6585  6595977   74.94%
CPX0000        2     4     1944.6585  8932     7735.0000     1938.6585  6643207   74.94%
CPX0000        3     5     1938.6585  9231     7735.0000     1938.6585  6701070   74.94%
CPX0000        4     6     1944.6585  8850     7735.0000     1938.6585  6747859   74.94%
CPX0000        5     7     1944.6585  8804     7735.0000     1938.6585  6749664   74.94%
CPX0000        6     8     1944.6585  8621     7735.0000     1938.6585  6806727   74.94%
CPX0000        7     9     1944.6585  8667     7735.0000     1938.6585  6840131   74.94%
CPX0000        8    10     1944.6585  8610     7735.0000     1938.6585  6845968   74.94%
CPX0000        9    11     1944.6585  8630     7735.0000     1938.6585  6850546   74.94%
CPX0000       10    12     1944.7709  8507     7735.0000     1938.6585  6897257   74.94%
CPX0000  Elapsed time = 74741.34 sec. (17960261.93 ticks, tree = 3.55 MB
CPX0000       11    13     1944.7715  8687     7735.0000     1938.6585  6920869   74.94%
CPX0000       12    14     1944.9647  8598     7735.0000     1938.6585  6951788   74.94%
CPX0000       13    15     1944.9647  8586     7735.0000     1938.6585  6952029   74.94%
CPX0000       14    16     1944.9647  8526     7735.0000     1938.6585  6963442   74.94%
CPX0000       15    17     1949.1588  8489     7735.0000     1938.6585  7015593   74.94%
CPX0000       16    18     1947.1699  8513     7735.0000     1938.6585  7062248   74.94%
CPX0000       17    19     1954.3704  8445     7735.0000     1938.6585  7076659   74.94%
CPX0000       18    20     1954.0897  8474     7735.0000     1938.6585  7085765   74.94%
CPX0000       19    21     1954.3704  8431     7735.0000     1938.6585  7096997   74.94%
CPX0000       20    22     1954.3704  8439     7735.0000     1938.6585  7103702   74.94%
CPX0000  Elapsed time = 75656.17 sec. (18160129.64 ticks, tree = 7.38 MB
CPX0000       21    23     1959.2569  8431     7735.0000     1938.6585  7134992   74.94%
CPX0000       22    24     1954.3704  8432     7735.0000     1938.6585  7136937   74.94%
CPX0000       23    25     1954.3708  8432     7735.0000     1938.6585  7140359   74.94%
CPX0000       24    26     1955.0268  8518     7735.0000     1938.6585  7153954   74.94%
CPX0000       25    27     1954.3708  8438     7735.0000     1938.6585  7171942   74.94%
CPX0000       26    28     1958.3882  8436     7735.0000     1938.6585  7229617   74.94%
CPX0000       27    29     1954.3708  8441     7735.0000     1938.6585  7252455   74.94%
CPX0000       28    30     1958.5008  8446     7735.0000     1938.6585  7281277   74.94%
CPX0000       29    31     1954.4036  8448     7735.0000     1938.6585  7287953   74.94%
CPX0000       30    32     1954.4143  8360     7735.0000     1938.6585  7294411   74.94%
CPX0000  Elapsed time = 76352.25 sec. (18323706.87 ticks, tree = 7.69 MB
CPX0000       31    33     1954.4143  8332     7735.0000     1938.6585  7296044   74.94%
CPX0000       32    34     1954.4143  8208     7735.0000     1938.6585  7298735   74.94%
CPX0000       33    35     1954.4143  8169     7735.0000     1938.6585  7300241   74.94%
CPX0000       34    36     1954.4143  8038     7735.0000     1938.6585  7302709   74.94%
CPX0000       35    37     1954.4143  7981     7735.0000     1938.6585  7305144   74.94%
CPX0000       36    38     1961.9143  7815     7735.0000     1938.6585  7308047   74.94%
CPX0000       37    39     1961.9149  7834     7735.0000     1938.6585  7311105   74.94%
CPX0000       38    40     1961.9143  7828     7735.0000     1938.6585  7316046   74.94%
CPX0000       39    41     1961.9143  7822     7735.0000     1938.6585  7317719   74.94%
CPX0000       40    42     1961.9143  7804     7735.0000     1938.6585  7318405   74.94%
CPX0000  Elapsed time = 76483.77 sec. (18352562.15 ticks, tree = 7.98 MB
CPX0000       41    43     1961.9143  7556     7735.0000     1938.6585  7321662   74.94%
CPX0000       42    44     1965.5521  7354     7735.0000     1938.6585  7326230   74.94%
CPX0000       43    45     1965.5521  7337     7735.0000     1938.6585  7345971   74.94%
CPX0000       44    46     1965.5550  7334     7735.0000     1938.6585  7348277   74.94%
CPX0000       45    47     1965.5550  7334     7735.0000     1938.6585  7351185   74.94%
CPX0000       46    48     1965.5755  7323     7735.0000     1938.6585  7355727   74.94%
CPX0000       47    49     1970.9666  7432     7735.0000     1938.6585  7370481   74.94%
CPX0000       48    50     1969.6435  7441     7735.0000     1938.6585  7390310   74.94%
CPX0000       49    51     1969.6435  7444     7735.0000     1938.6585  7392390   74.94%
CPX0000       50    52     1969.6435  7447     7735.0000     1938.6585  7397994   74.94%
CPX0000  Elapsed time = 77735.58 sec. (18621359.16 ticks, tree = 8.27 MB
CPX0000       51    53     1969.6435  7401     7735.0000     1938.6585  7400852   74.94%
CPX0000       52    54     1969.6536  7373     7735.0000     1938.6585  7405027   74.94%
CPX0000       53    55     1969.6536  7361     7735.0000     1938.6585  7406415   74.94%
CPX0000       54    56     1969.6536  7355     7735.0000     1938.6585  7408595   74.94%
CPX0000       55    57     1969.6592  7309     7735.0000     1938.6585  7412193   74.94%
CPX0000       56    58     1969.6661  7388     7735.0000     1938.6585  7416303   74.94%
CPX0000       57    59     1970.8321  7363     7735.0000     1938.6585  7436898   74.94%
CPX0000       58    60     1970.8321  7366     7735.0000     1938.6585  7445456   74.94%
CPX0000       59    61     1970.8321  7318     7735.0000     1938.6585  7478198   74.94%
CPX0000       60    62     1970.8321  7310     7735.0000     1938.6585  7478262   74.94%
CPX0000  Elapsed time = 78616.73 sec. (18820322.31 ticks, tree = 8.56 MB
CPX0000       61    63     1970.8321  7311     7735.0000     1938.6585  7479165   74.94%
CPX0000       62    64     1971.2371  7303     7735.0000     1938.6585  7490886   74.94%
CPX0000       63    65     1971.2444  7272     7735.0000     1938.6585  7504826   74.94%
CPX0000       65    67     1971.2444  7243     7735.0000     1938.6585  7506263   74.94%
CPX0000       66    68     1971.2444  7062     7735.0000     1938.6585  7515407   74.94%
CPX0000       68    70     1971.2444  7051     7735.0000     1938.6585  7519136   74.94%
CPX0000       70    72     1975.3872  6825     7735.0000     1938.6585  7532166   74.94%
CPX0000       71    73     1975.3872  6734     7735.0000     1938.6585  7542786   74.94%
CPX0000       72    74     1975.3872  6655     7735.0000     1938.6585  7551813   74.94%
CPX0000       74    76     1975.3872  6631     7735.0000     1938.6585  7555949   74.94%
CPX0000  Elapsed time = 78920.19 sec. (18879690.62 ticks, tree = 11.34 MB
CPX0000       76    78     1975.4162  6653     7735.0000     1938.6585  7563300   74.94%
CPX0000       78    80     1975.3872  6595     7735.0000     1938.6585  7568935   74.94%
CPX0000       79    81     1978.3872  6505     7735.0000     1938.6585  7577008   74.94%
CPX0000       80    82     1978.5378  6593     7735.0000     1938.6585  7592978   74.94%
CPX0000       81    83     1979.0541  6437     7735.0000     1938.6585  7614023   74.94%
CPX0000       82    84     1979.1269  6428     7735.0000     1938.6585  7624190   74.94%
CPX0000       83    85     1979.5906  6375     7735.0000     1938.6585  7639636   74.94%
CPX0000       85    87     1979.5906  6368     7735.0000     1938.6585  7642459   74.94%
CPX0000       86    88     1983.0221  6358     7735.0000     1938.6585  7667918   74.94%
CPX0000       87    89     1990.3690  6451     7735.0000     1938.6585  7688397   74.94%
CPX0000  Elapsed time = 81867.71 sec. (19462924.86 ticks, tree = 11.69 MB
CPX0000       88    90     1984.0809  6424     7735.0000     1938.6585  7719243   74.94%
CPX0000       89    91     1992.1737  6507     7735.0000     1938.6585  7800962   74.94%
CPX0000       90    92     1986.4335  6248     7735.0000     1938.6585  7810133   74.94%
CPX0000       91    93     1986.4610  6209     7735.0000     1938.6585  7813107   74.94%
CPX0000       92    94     1986.4610  6191     7735.0000     1938.6585  7820391   74.94%
CPX0000       93    95     1986.4610  6175     7735.0000     1938.6585  7833515   74.94%
CPX0000       94    96     1986.5177  6218     7735.0000     1938.6585  7858045   74.94%
CPX0000       95    97     1986.5217  6168     7735.0000     1938.6585  7864536   74.94%
CPX0000       97    99     1986.5238  6108     7735.0000     1938.6585  7867079   74.94%
CPX0000       98   100     1986.6136  6136     7735.0000     1938.6585  7879196   74.94%
CPX0000  Elapsed time = 82171.82 sec. (19539386.29 ticks, tree = 13.21 MB
CPX0000       99   101     1990.6098  6229     7735.0000     1938.6585  7910408   74.94%
CPX0000  *   100+  100                         6470.0000     1938.6585  7916368   70.04%
CPX0000  *   100+  100                         5975.0000     1938.6585  7916368   67.55%
CPX0000  *   100+  100                         5935.0000     1938.6585  7916368   67.34%
CPX0000  *   100+  100                         5915.0000     1938.6585  7916368   67.22%
CPX0000  *   100+  100                         5765.0000     1938.6585  7916368   66.37%
CPX0000  *   100+  100                         5700.0000     1938.6585  7916368   65.99%
CPX0000  *   100+  100                         5665.0000     1938.6585  7916368   65.78%
CPX0000  *   100+  100                         5610.0000     1938.6585  7916368   65.44%
CPX0000  *   100+  100                         5460.0000     1938.6585  7916368   64.49%
CPX0000  *   100+  100                         5440.0000     1938.6585  7916368   64.36%
CPX0000  *   100+  100                         5405.0000     1938.6585  7916368   64.13%
CPX0000  *   100+  100                         5285.0000     1938.6585  7916368   63.32%
CPX0000      100   102     1986.6136  6165     5285.0000     1938.6585  7916368   63.32%
[1m[30m[ZEN] [0m22:52:55 [1m[34m   5285.00[1m[32m   63.32%
[0mCPX0000      101   103     1986.7869  6198     5285.0000     1938.6585  7936102   63.32%
CPX0000      102   104     1986.6447  6134     5285.0000     1938.6585  7938222   63.32%
CPX0000      103   105     1986.6447  6131     5285.0000     1938.6585  7943421   63.32%
CPX0000      104   106     1986.6447  6154     5285.0000     1938.6585  7947319   63.32%
CPX0000      105   107     1987.5083  6147     5285.0000     1938.6585  7958336   63.32%
CPX0000      106   108     1986.6447  6164     5285.0000     1938.6585  7963147   63.32%
CPX0000      107   109     1986.6620  6146     5285.0000     1938.6585  7968811   63.32%
CPX0000      109   111     1986.6989  6181     5285.0000     1938.6585  7974526   63.32%
CPX0000  Elapsed time = 82503.69 sec. (19630864.65 ticks, tree = 13.53 MB
CPX0000      110   112     1987.4702  6148     5285.0000     1938.6585  7986677   63.32%
CPX0000      112   114     1987.4702  6151     5285.0000     1938.6585  7986819   63.32%
CPX0000      113   115     1992.8339  6120     5285.0000     1938.6585  8001784   63.32%
CPX0000      114   116     1997.2944  6127     5285.0000     1938.6585  8052235   63.32%
CPX0000      116   118     1993.5416  6063     5285.0000     1938.6585  8061793   63.32%
CPX0000      118   120     1993.6376  6092     5285.0000     1938.6585  8068623   63.32%
CPX0000      119   121     1993.5416  6064     5285.0000     1938.6585  8074113   63.32%
CPX0000      120   122     1997.7083  5942     5285.0000     1938.6585  8077892   63.32%
CPX0000      122   124     2011.0416  5909     5285.0000     1938.6585  8084701   63.32%
CPX0000      125   127     1997.7083  5954     5285.0000     1938.6585  8088867   63.32%
CPX0000  Elapsed time = 82870.09 sec. (19715097.66 ticks, tree = 18.77 MB
CPX0000      126   128     1998.1140  5922     5285.0000     1938.6585  8092449   63.32%
CPX0000      129   131     1998.1140  5899     5285.0000     1938.6585  8096040   63.32%
CPX0000      132   134     2002.1140  5865     5285.0000     1938.6585  8101363   63.32%
CPX0000      134   136     2002.1140  5807     5285.0000     1938.6585  8105602   63.32%
CPX0000      136   138     2002.1733  5745     5285.0000     1938.6585  8111663   63.32%
CPX0000      138   140     2002.1744  5743     5285.0000     1938.6585  8120531   63.32%
CPX0000      139   141     2002.2915  5817     5285.0000     1938.6585  8127520   63.32%
CPX0000      140   142     2002.3641  5828     5285.0000     1938.6585  8131701   63.32%
CPX0000      141   143     2002.2915  5829     5285.0000     1938.6585  8137457   63.32%
CPX0000      143   145     2002.4070  5850     5285.0000     1938.6585  8144345   63.32%
CPX0000  Elapsed time = 85575.41 sec. (20246473.36 ticks, tree = 19.31 MB
CPX0000      144   146     2003.2766  5748     5285.0000     1938.6585  8153785   63.32%
CPX0000      146   148     2014.6524  5709     5285.0000     1938.6585  8160875   63.32%
CPX0000      147   149     2018.1388  5713     5285.0000     1938.6585  8169345   63.32%
CPX0000      148   150     2025.9270  5670     5285.0000     1938.6585  8175920   63.32%
CPX0000      150   152     2019.7627  5616     5285.0000     1938.6585  8181644   63.32%
CPX0000      153   155     2024.5467  5662     5285.0000     1938.6585  8192878   63.32%
CPX0000      154   156     2019.7627  5592     5285.0000     1938.6585  8199047   63.32%
CPX0000      156   158     2020.0481  5725     5285.0000     1938.6585  8208779   63.32%
CPX0000      158   160     2019.9720  5734     5285.0000     1938.6585  8221745   63.32%
CPX0000      160   162     2019.8715  5617     5285.0000     1938.6585  8228027   63.32%
CPX0000  Elapsed time = 85833.09 sec. (20317235.13 ticks, tree = 22.23 MB
CPX0000      162   164     2019.9157  5596     5285.0000     1938.6585  8234907   63.32%
CPX0000      164   166     2019.9157  5581     5285.0000     1938.6585  8243308   63.32%
CPX0000      167   169     2020.8660  5540     5285.0000     1938.6585  8256168   63.32%
CPX0000      170   172     2023.3812  5621     5285.0000     1938.6585  8271884   63.32%
CPX0000      171   173     2021.3150  5529     5285.0000     1938.6585  8271997   63.32%
CPX0000      172   174     2021.6194  5566     5285.0000     1938.6585  8278570   63.32%
CPX0000      173   175     2023.2908  5617     5285.0000     1938.6585  8288715   63.32%
CPX0000      176   178     2021.6194  5534     5285.0000     1938.6585  8298100   63.32%
CPX0000      178   180     2021.6361  5584     5285.0000     1938.6585  8307774   63.32%
CPX0000      180   182     2021.7796  5557     5285.0000     1938.6585  8316914   63.32%
CPX0000  Elapsed time = 86085.30 sec. (20383206.66 ticks, tree = 22.81 MB
CPX0000      181   183     2022.0307  5597     5285.0000     1938.6585  8323799   63.32%
CPX0000      183   185     2021.7796  5538     5285.0000     1938.6585  8331951   63.32%
CPX0000      184   186     2023.1330  5548     5285.0000     1938.6585  8340321   63.32%
CPX0000      186   188     2022.5750  5562     5285.0000     1938.6585  8349418   63.32%
CPX0000      188   190     2022.7349  5594     5285.0000     1938.6585  8360944   63.32%
CPX0000      189   191     2023.9499  5557     5285.0000     1938.6585  8371843   63.32%
CPX0000      191   193     2023.9509  5546     5285.0000     1938.6585  8379623   63.32%
CPX0000      193   195     2023.9868  5543     5285.0000     1938.6585  8384877   63.32%
CPX0000      196   198     2024.0570  5535     5285.0000     1938.6585  8390645   63.32%
CPX0000      198   200     2024.1316  5533     5285.0000     1938.6585  8398706   63.32%
CPX0000  Elapsed time = 86316.82 sec. (20442735.91 ticks, tree = 25.73 MB
CPX0000      199   201     2025.3147  5490     5285.0000     1938.6585  8404999   63.32%
CPX0000
CPX0000  GUB cover cuts applied:  549
CPX0000  Clique cuts applied:  464
CPX0000  Cover cuts applied:  11
CPX0000  Implied bound cuts applied:  18
CPX0000  Mixed integer rounding cuts applied:  97
CPX0000  Zero-half cuts applied:  6384
CPX0000  Lift and project cuts applied:  2
CPX0000  Gomory fractional cuts applied:  20
CPX0000
CPX0000  Root node processing (before b&c):
CPX0000    Real time             = 71030.25 sec. (17207902.71 ticks)
CPX0000  Sequential b&c:
CPX0000    Real time             = 15369.86 sec. (3253958.89 ticks)
CPX0000                            ------------
CPX0000  Total (root+branch&cut) = 86400.11 sec. (20461861.60 ticks)
H2 understaffing: 0
H3 shiftTypeSuccessions: 0
S1 optimalCoverage: 330
S2a consecutiveShift: 375 = (25,0 )
S2b consecutiveWorkingDays: 660 = ( 22,0 )
S3 consecutiveDaysOff: 450 = ( 6,9 )
S4 preferences: 160
S5 completeWeekend: 0
S6 totalAssignments: 3100
S7 totalWorkingWeekeends: 210
 

Cost Solution: 5285

       |M|T|W|T|F|S|S| |M|T|W|T|F|S|S| |M|T|W|T|F|S|S| |M|T|W|T|F|S|S|
------------------------------------------------------------------------
HN_0   |-|E|E|E|E|-|-| |-|E|E|D|D|D|E| |E|-|-|-|-|D|D| |E|E|E|-|-|-|-|
HN_1   |D|D|-|-|-|-|D| |D|-|-|-|-|-|-| |E|E|-|-|-|E|D| |D|D|-|-|-|-|-|
HN_2   |-|-|-|D|D|-|-| |-|-|-|D|D|-|-| |-|-|-|D|D|-|-| |-|-|E|E|N|N|N|
HN_3   |N|-|-|N|N|N|N| |-|E|E|L|L|-|-| |D|D|D|E|E|-|-| |E|E|D|D|D|-|-|
HN_4   |-|-|-|-|N|N|N| |N|N|-|-|-|-|-| |L|L|L|L|-|-|-| |-|-|E|E|E|-|-|
HN_5   |-|L|L|L|L|-|-| |-|-|-|-|-|D|D| |D|D|-|-|-|-|-| |-|-|D|D|D|-|-|
HN_6   |E|E|-|-|-|E|E| |L|L|L|L|-|-|-| |-|E|E|E|E|-|-| |-|D|D|L|L|-|-|
HN_7   |-|L|L|L|L|-|-| |-|L|L|N|N|N|N| |N|-|-|-|E|E|E| |E|L|L|-|-|-|-|
HN_8   |D|D|D|D|D|-|-| |-|D|D|E|E|E|D| |D|-|-|-|-|L|L| |L|L|L|-|-|-|-|
HN_9   |L|L|L|-|-|-|-| |-|-|-|L|L|L|L| |-|-|-|-|-|-|-| |N|N|N|N|N|-|-|
HN_10  |-|D|D|D|D|-|-| |-|L|L|L|L|-|-| |-|L|L|L|L|-|-| |-|-|L|L|L|L|L|
HN_11  |-|-|E|E|L|L|-| |-|-|-|-|E|E|E| |-|-|-|D|D|D|-| |-|-|-|D|D|-|-|
HN_12  |-|L|L|L|-|-|-| |-|N|N|N|N|-|-| |-|E|E|E|-|-|-| |E|E|E|-|-|-|-|
HN_13  |-|-|N|N|N|N|N| |-|-|-|-|E|-|-| |-|-|N|N|N|N|N| |-|L|L|L|L|-|-|
HN_14  |-|-|-|E|E|E|E| |E|-|-|-|N|N|N| |N|-|-|-|-|-|-| |N|N|N|N|-|-|-|
HN_15  |D|D|-|-|-|D|D| |E|E|D|D|-|-|-| |D|D|D|D|D|-|-| |-|D|D|D|D|-|-|
HN_16  |E|E|E|E|E|-|-| |N|N|N|N|N|-|-| |N|N|N|N|N|-|-| |L|L|L|-|-|L|L|
HN_17  |N|N|N|N|-|-|-| |D|D|D|-|-|-|-| |-|-|L|L|L|-|-| |-|-|-|-|-|E|E|
HN_18  |-|-|D|D|D|-|-| |L|L|L|L|L|-|-| |E|E|E|-|-|N|N| |N|N|N|-|-|D|D|
HN_19  |N|N|N|-|-|-|-| |D|D|D|D|-|-|-| |-|D|D|D|L|L|L| |-|-|-|-|N|N|N|
NU_20  |-|L|L|L|-|-|-| |-|-|-|D|D|N|N| |N|-|-|-|-|-|-| |E|E|E|E|-|-|-|
NU_21  |-|-|L|L|L|-|-| |N|N|N|N|N|-|-| |E|E|E|-|-|L|L| |L|-|-|D|D|D|D|
NU_22  |N|N|N|N|N|-|-| |E|E|E|-|-|D|D| |L|L|-|-|N|N|N| |N|-|-|-|E|E|L|
NU_23  |E|E|E|-|-|-|-| |-|E|E|E|E|-|-| |-|-|-|N|N|N|N| |-|-|-|-|-|-|-|
NU_24  |-|-|-|-|-|-|-| |E|E|E|E|-|-|-| |-|D|D|D|D|-|-| |-|-|-|E|E|D|D|
NU_25  |-|-|-|-|-|-|-| |N|N|N|N|-|-|-| |-|-|L|L|L|-|-| |-|D|D|D|D|-|-|
NU_26  |E|E|-|-|-|-|-| |-|-|E|E|E|-|-| |-|-|-|E|E|E|E| |-|-|-|-|-|-|-|
NU_27  |L|L|-|-|-|-|-| |D|D|-|-|-|-|-| |-|-|N|N|N|N|-| |-|-|L|L|-|-|-|
NU_28  |E|-|-|-|-|-|-| |D|D|D|D|D|-|-| |-|-|-|-|D|D|E| |E|E|-|-|-|-|-|
NU_29  |L|-|-|-|E|E|E| |E|-|-|-|L|L|N| |N|N|N|-|-|-|-| |E|E|-|-|-|-|-|
NU_30  |N|N|N|N|-|-|-| |-|N|N|N|N|-|-| |-|L|L|N|N|-|-| |-|-|-|E|E|E|E|
NU_31  |-|-|-|-|L|L|L| |L|-|-|-|-|-|-| |L|L|L|-|-|-|-| |N|N|N|N|-|-|-|
NU_32  |N|N|-|-|L|L|L| |-|-|D|D|D|-|-| |L|L|L|L|L|-|-| |N|N|N|N|N|-|-|
NU_33  |E|-|-|-|L|L|L| |L|-|-|N|N|N|N| |-|-|E|E|E|-|-| |-|L|L|L|L|-|-|
NU_34  |-|-|D|D|-|-|-| |-|-|-|-|D|D|D| |D|D|-|-|-|-|-| |D|D|-|-|-|-|-|
NU_35  |-|-|E|E|D|D|D| |D|-|-|-|-|N|N| |N|N|N|-|-|-|-| |L|L|L|L|L|-|-|
NU_36  |E|E|E|-|-|-|-| |L|L|L|-|-|-|-| |-|E|E|E|E|-|-| |-|-|D|D|D|-|-|
NU_37  |D|-|-|-|E|E|D| |D|-|-|-|-|-|-| |D|D|D|D|-|-|-| |L|L|L|-|-|-|-|
NU_38  |L|L|L|-|-|-|-| |E|E|E|L|L|-|-| |E|E|D|D|D|-|-| |N|N|N|N|N|-|-|
NU_39  |D|-|-|-|-|N|N| |N|N|N|-|-|-|-| |N|N|N|N|-|-|-| |-|E|E|E|E|E|D|
CT_40  |-|-|-|E|E|-|-| |-|-|-|L|L|-|-| |-|-|-|-|D|D|-| |-|-|-|D|D|-|-|
CT_41  |-|-|-|E|E|-|-| |-|D|D|-|-|-|-| |-|-|-|D|D|-|-| |-|-|-|-|D|D|D|
CT_42  |D|D|-|-|N|N|N| |N|N|-|-|E|E|E| |-|-|E|E|E|-|-| |D|D|D|D|D|-|-|
CT_43  |-|-|-|E|E|-|-| |-|-|-|-|-|L|L| |L|-|-|D|D|-|-| |-|-|-|E|E|-|-|
CT_44  |-|-|L|L|L|-|-| |-|-|D|D|D|-|-| |-|-|-|-|L|L|L| |-|-|-|-|-|-|-|
CT_45  |L|L|L|L|-|-|-| |L|L|L|L|-|-|-| |N|N|N|N|-|-|-| |N|N|N|N|-|-|-|
CT_46  |-|N|N|N|N|-|-| |-|-|-|D|D|D|D| |D|-|-|-|-|-|-| |L|-|-|-|-|-|-|
CT_47  |E|-|E|E|E|-|-| |E|L|L|L|L|-|-| |E|E|E|-|-|N|N| |N|-|-|L|L|L|L|
CT_48  |-|-|D|D|D|-|-| |-|-|E|E|E|-|-| |-|-|-|-|E|E|E| |L|L|-|-|-|-|-|
CT_49  |D|D|L|L|L|-|-| |E|E|E|E|E|-|-| |-|-|-|D|D|D|L| |L|-|-|L|L|L|L|
CT_50  |N|N|N|N|-|-|-| |N|N|N|N|-|-|-| |L|L|L|L|L|-|-| |-|-|N|N|N|N|N|
CT_51  |-|-|N|N|N|N|N| |-|-|-|-|-|-|-| |E|E|E|-|-|-|-| |L|L|L|-|-|-|-|
CT_52  |-|L|L|L|L|-|-| |-|N|N|N|N|-|-| |-|N|N|N|N|-|-| |-|-|D|D|D|E|E|
CT_53  |-|-|D|D|D|-|-| |-|N|N|N|N|-|-| |-|-|-|-|N|N|N| |N|-|-|-|-|-|-|
CT_54  |N|N|-|-|L|L|L| |-|-|D|D|L|L|L| |-|-|E|E|E|-|-| |E|E|E|E|E|-|-|
CT_55  |L|L|-|-|-|-|-| |E|E|-|-|-|-|-| |E|E|-|-|-|-|-| |-|L|L|-|-|-|-|
CT_56  |-|-|-|-|-|-|E| |E|-|-|-|-|-|-| |L|L|-|-|-|-|-| |D|D|-|-|-|-|-|
CT_57  |-|-|D|D|D|-|-| |-|N|N|N|N|-|-| |-|-|L|L|L|-|-| |-|-|E|E|E|-|-|
CT_58  |D|D|-|-|-|-|-| |-|L|L|L|-|-|-| |-|-|-|-|E|E|E| |-|-|-|-|-|-|-|
CT_59  |-|D|D|E|E|-|-| |-|E|E|L|L|-|-| |-|L|-|-|-|D|D| |N|N|N|N|-|-|-|
CT_60  |L|-|-|-|-|-|-| |D|D|D|D|-|-|-| |-|-|-|-|D|D|D| |D|D|-|-|-|-|-|
CT_61  |E|E|-|-|-|-|-| |L|L|-|-|-|-|-| |-|-|N|N|N|N|-| |-|-|-|E|E|-|-|
CT_62  |-|E|E|L|L|-|-| |N|N|N|N|N|-|-| |D|D|D|D|D|-|-| |-|-|D|D|N|N|N|
CT_63  |N|N|N|N|N|-|-| |-|-|E|E|E|E|E| |L|L|-|-|-|-|-| |D|D|D|D|-|-|-|
CT_64  |N|N|N|-|-|-|-| |L|L|L|L|-|-|-| |-|-|-|-|L|L|L| |L|-|-|-|-|-|-|
CT_65  |D|D|D|-|-|N|N| |N|N|-|-|D|D|D| |-|-|D|D|D|-|-| |D|D|D|D|D|-|-|
CT_66  |N|-|-|-|-|D|D| |D|D|D|-|-|-|-| |D|D|D|E|E|-|-| |-|-|L|L|L|L|N|
CT_67  |L|L|-|-|-|-|-| |D|D|-|-|-|-|-| |-|D|D|-|-|-|-| |-|-|-|L|L|-|-|
CT_68  |D|D|D|L|L|-|-| |-|-|-|-|N|N|N| |N|-|-|-|-|-|-| |D|D|D|-|-|-|-|
CT_69  |-|-|-|-|E|E|E| |-|-|-|-|-|-|-| |D|D|N|-|-|-|-| |N|N|N|N|N|-|-|
CT_70  |N|N|N|N|N|-|-| |-|D|D|D|D|-|-| |-|E|E|E|E|E|L| |L|-|-|-|-|E|E|
CT_71  |D|D|-|-|-|-|-| |D|D|-|-|-|-|L| |L|L|-|-|-|-|-| |-|E|E|-|-|-|-|
CT_72  |-|-|-|-|-|D|D| |-|-|-|D|D|-|-| |-|L|L|-|-|-|-| |E|E|E|-|-|-|-|
CT_73  |E|E|-|-|-|-|D| |D|-|-|-|-|-|-| |D|D|L|L|L|-|-| |E|E|E|-|-|-|-|
CT_74  |L|L|-|-|-|E|E| |-|-|-|-|-|-|-| |E|E|-|-|-|-|-| |-|-|L|L|-|-|-|
CT_75  |-|-|D|D|L|L|L| |-|-|-|-|L|-|-| |-|N|N|N|N|-|-| |-|-|N|N|N|N|N|
CT_76  |N|-|E|E|E|-|-| |L|L|L|L|L|-|-| |N|N|N|N|N|-|-| |E|E|-|-|D|D|E|
CT_77  |D|D|D|D|D|-|-| |D|D|E|E|E|-|-| |N|N|N|N|N|-|-| |E|E|L|L|L|-|-|
CT_78  |L|-|-|D|D|L|L| |L|-|-|D|D|E|E| |-|-|L|L|L|-|-| |E|N|N|N|N|-|-|
CT_79  |E|E|-|-|-|-|-| |L|L|-|-|-|L|L| |L|-|-|-|-|-|-| |-|L|L|-|-|-|-|
TR_80  |-|L|L|L|L|-|-| |-|-|E|E|E|E|L| |L|-|-|-|-|E|E| |E|E|E|-|-|-|-|
TR_81  |D|D|D|-|-|-|-| |-|-|D|D|D|D|D| |-|-|-|-|-|-|-| |L|L|L|-|-|-|-|
TR_82  |-|-|E|E|E|-|-| |-|-|-|-|N|N|N| |N|N|-|-|-|-|-| |L|L|L|-|-|-|-|
TR_83  |D|-|-|-|-|N|N| |N|N|N|-|-|-|-| |E|E|E|E|-|-|-| |-|E|E|E|L|L|L|
TR_84  |E|E|E|E|-|-|-| |N|N|N|N|-|-|-| |N|N|N|N|-|-|-| |L|-|-|-|-|E|E|
TR_85  |D|D|-|-|-|-|-| |L|L|-|-|-|-|D| |D|-|-|E|E|-|-| |-|-|-|L|L|-|-|
TR_86  |-|-|-|-|E|E|E| |E|-|-|-|-|-|-| |E|E|E|E|-|-|-| |E|E|E|-|-|-|-|
TR_87  |-|-|D|D|D|L|L| |-|-|-|-|D|D|L| |L|L|L|-|-|-|-| |L|L|L|L|-|-|-|
TR_88  |-|N|N|N|N|-|-| |-|-|D|D|L|L|L| |L|-|-|-|-|L|L| |L|L|L|-|-|-|-|
TR_89  |-|-|D|D|D|-|-| |N|N|N|N|N|-|-| |D|D|D|-|-|D|D| |D|-|-|-|D|D|E|
TR_90  |N|N|-|-|-|-|-| |E|E|E|-|-|-|-| |D|D|D|D|D|-|-| |-|-|-|-|D|D|D|
TR_91  |-|-|L|L|L|-|-| |N|N|N|N|-|D|N| |N|-|-|N|N|N|N| |-|-|E|E|E|L|L|
TR_92  |-|N|N|N|N|-|-| |-|-|E|E|E|-|-| |-|-|-|D|D|-|-| |-|-|-|-|-|N|N|
TR_93  |-|-|-|-|-|L|L| |L|-|-|-|-|-|-| |L|L|L|-|-|-|-| |D|D|D|E|E|-|-|
TR_94  |E|E|E|-|-|-|-| |D|D|D|-|-|-|-| |L|-|-|-|-|-|-| |D|D|D|D|-|-|-|
TR_95  |-|-|-|-|E|E|-| |-|-|-|D|D|-|-| |-|-|-|L|L|-|-| |-|-|D|D|-|-|-|
TR_96  |E|E|E|E|E|-|-| |-|E|E|E|-|-|-| |-|N|N|N|N|-|-| |-|N|N|N|N|-|-|
TR_97  |L|-|-|L|L|-|-| |D|D|D|D|D|-|-| |D|D|L|L|L|-|-| |-|D|D|L|L|-|-|
TR_98  |-|E|E|E|E|-|-| |-|-|E|E|N|N|N| |N|N|-|-|-|N|N| |N|N|-|-|-|-|-|
TR_99  |L|L|L|L|-|-|-| |L|L|L|L|-|-|-| |-|D|D|D|-|-|-| |-|D|D|E|E|-|-|
TR_100 |D|D|D|D|D|-|-| |E|E|E|E|E|-|-| |E|E|E|-|-|L|L| |L|L|-|-|D|D|D|
TR_101 |N|N|N|N|N|-|-| |L|L|L|L|L|-|-| |E|E|E|E|E|-|-| |N|N|N|N|N|-|-|
TR_102 |N|N|N|N|-|-|-| |-|-|N|N|N|N|-| |-|N|N|N|N|-|-| |E|E|-|-|-|-|-|
TR_103 |-|-|-|-|-|L|L| |L|-|-|-|-|-|-| |-|L|L|L|-|-|-| |N|N|N|N|N|-|-|
TR_104 |L|L|-|-|N|N|N| |N|N|-|-|D|D|E| |D|D|-|-|L|L|L| |-|-|D|D|D|-|-|
TR_105 |N|-|-|-|D|D|E| |E|-|-|-|E|E|E| |L|L|L|-|-|-|-| |D|D|E|E|-|-|-|
TR_106 |E|-|-|D|D|D|D| |D|-|-|E|E|E|E| |-|-|D|D|D|-|-| |N|N|N|N|N|-|-|
TR_107 |D|D|E|E|-|-|-| |D|D|D|L|L|-|-| |-|-|-|-|E|E|E| |E|-|-|-|-|E|E|
TR_108 |E|E|-|-|-|-|-| |E|E|-|-|-|-|-| |E|E|-|-|L|L|-| |-|-|-|L|L|-|-|
TR_109 |L|L|-|-|-|D|D| |D|E|E|-|-|-|-| |N|N|N|N|-|-|-| |-|N|N|N|N|-|-|


Hard constraint violations
--------------------------

Minimal coverage constraints: 0
Required skill constraints: 0
Illegal shift type succession constraints: 0
Single assignment per day: 0


Cost per constraint type
------------------------

Total assignment constraints: 3100
Consecutive constraints: 1035
Non working days constraints: 450
Preferences: 160
Max working weekend: 210
Complete weekends: 0
Optimal coverage constraints: 330

------------------------

Total cost: 5285
